p cnf 200 1110
-101 -97 0
-101 6 0
-101 -45 0
-101 -62 0
-101 -60 0
-101 -59 0
-101 70 0
-101 94 0
-101 -16 0
-101 31 0
101 97 -6 45 62 60 59 -70 -94 16 -31 0
-102 24 0
-102 -31 0
-102 -60 0
-102 -39 0
-102 -11 0
-102 -17 0
-102 76 0
-102 27 0
-102 -6 0
-102 -74 0
102 -24 31 60 39 11 17 -76 -27 6 74 0
-103 -21 0
-103 10 0
-103 -1 0
-103 59 0
-103 -83 0
-103 77 0
-103 -93 0
-103 37 0
-103 -57 0
-103 -27 0
103 21 -10 1 -59 83 -77 93 -37 57 27 0
-104 48 0
-104 60 0
-104 53 0
-104 -89 0
-104 68 0
-104 91 0
-104 47 0
-104 19 0
-104 -8 0
-104 -14 0
104 -48 -60 -53 89 -68 -91 -47 -19 8 14 0
-105 34 0
-105 69 0
-105 14 0
-105 78 0
-105 -19 0
-105 -90 0
-105 -50 0
-105 92 0
-105 40 0
-105 32 0
105 -34 -69 -14 -78 19 90 50 -92 -40 -32 0
-106 -33 0
-106 49 0
-106 25 0
-106 82 0
-106 -73 0
-106 19 0
-106 1 0
-106 -76 0
-106 83 0
-106 -94 0
106 33 -49 -25 -82 73 -19 -1 76 -83 94 0
-107 5 0
-107 78 0
-107 88 0
-107 28 0
-107 3 0
-107 92 0
-107 95 0
-107 -77 0
-107 45 0
-107 62 0
107 -5 -78 -88 -28 -3 -92 -95 77 -45 -62 0
-108 6 0
-108 99 0
-108 7 0
-108 -10 0
-108 65 0
-108 66 0
-108 -12 0
-108 -93 0
-108 -84 0
-108 -56 0
108 -6 -99 -7 10 -65 -66 12 93 84 56 0
-109 97 0
-109 -89 0
-109 -56 0
-109 -82 0
-109 -99 0
-109 49 0
-109 98 0
-109 -80 0
-109 -85 0
-109 -66 0
109 -97 89 56 82 99 -49 -98 80 85 66 0
-110 66 0
-110 -73 0
-110 67 0
-110 83 0
-110 53 0
-110 -81 0
-110 -48 0
-110 -14 0
-110 -50 0
-110 -52 0
110 -66 73 -67 -83 -53 81 48 14 50 52 0
101 102 103 104 105 106 107 108 109 110 0
-111 -68 0
-111 30 0
-111 -17 0
-111 -66 0
-111 -6 0
-111 -27 0
-111 -46 0
-111 48 0
-111 43 0
-111 64 0
111 68 -30 17 66 6 27 46 -48 -43 -64 0
-112 81 0
-112 -55 0
-112 42 0
-112 22 0
-112 40 0
-112 73 0
-112 -67 0
-112 52 0
-112 7 0
-112 30 0
112 -81 55 -42 -22 -40 -73 67 -52 -7 -30 0
-113 -33 0
-113 82 0
-113 -54 0
-113 5 0
-113 20 0
-113 30 0
-113 -42 0
-113 -72 0
-113 -9 0
-113 -85 0
113 33 -82 54 -5 -20 -30 42 72 9 85 0
-114 40 0
-114 -8 0
-114 -41 0
-114 -29 0
-114 32 0
-114 5 0
-114 61 0
-114 -2 0
-114 95 0
-114 82 0
114 -40 8 41 29 -32 -5 -61 2 -95 -82 0
-115 12 0
-115 71 0
-115 -33 0
-115 39 0
-115 58 0
-115 49 0
-115 -36 0
-115 32 0
-115 -94 0
-115 85 0
115 -12 -71 33 -39 -58 -49 36 -32 94 -85 0
-116 -62 0
-116 68 0
-116 77 0
-116 89 0
-116 -74 0
-116 83 0
-116 25 0
-116 -90 0
-116 -10 0
-116 59 0
116 62 -68 -77 -89 74 -83 -25 90 10 -59 0
-117 42 0
-117 4 0
-117 -26 0
-117 31 0
-117 40 0
-117 63 0
-117 43 0
-117 -47 0
-117 -50 0
-117 -8 0
117 -42 -4 26 -31 -40 -63 -43 47 50 8 0
-118 49 0
-118 25 0
-118 35 0
-118 -66 0
-118 -26 0
-118 68 0
-118 -97 0
-118 -32 0
-118 51 0
-118 4 0
118 -49 -25 -35 66 26 -68 97 32 -51 -4 0
-119 -56 0
-119 -53 0
-119 -65 0
-119 -72 0
-119 -7 0
-119 66 0
-119 -61 0
-119 83 0
-119 95 0
-119 -86 0
119 56 53 65 72 7 -66 61 -83 -95 86 0
-120 79 0
-120 -63 0
-120 50 0
-120 -18 0
-120 67 0
-120 -96 0
-120 49 0
-120 89 0
-120 -51 0
-120 37 0
120 -79 63 -50 18 -67 96 -49 -89 51 -37 0
111 112 113 114 115 116 117 118 119 120 0
-121 -97 0
-121 -89 0
-121 -27 0
-121 -69 0
-121 -65 0
-121 -85 0
-121 86 0
-121 -80 0
-121 63 0
-121 70 0
121 97 89 27 69 65 85 -86 80 -63 -70 0
-122 37 0
-122 -72 0
-122 34 0
-122 9 0
-122 -58 0
-122 95 0
-122 -46 0
-122 74 0
-122 19 0
-122 18 0
122 -37 72 -34 -9 58 -95 46 -74 -19 -18 0
-123 93 0
-123 -40 0
-123 -36 0
-123 26 0
-123 -17 0
-123 28 0
-123 -46 0
-123 92 0
-123 -80 0
-123 -19 0
123 -93 40 36 -26 17 -28 46 -92 80 19 0
-124 -66 0
-124 -85 0
-124 47 0
-124 -2 0
-124 -20 0
-124 95 0
-124 39 0
-124 77 0
-124 -32 0
-124 -14 0
124 66 85 -47 2 20 -95 -39 -77 32 14 0
-125 62 0
-125 88 0
-125 -79 0
-125 59 0
-125 -58 0
-125 67 0
-125 50 0
-125 51 0
-125 -48 0
-125 -75 0
125 -62 -88 79 -59 58 -67 -50 -51 48 75 0
-126 -10 0
-126 80 0
-126 -34 0
-126 18 0
-126 -70 0
-126 7 0
-126 -73 0
-126 14 0
-126 39 0
-126 -63 0
126 10 -80 34 -18 70 -7 73 -14 -39 63 0
-127 23 0
-127 -78 0
-127 -18 0
-127 76 0
-127 -58 0
-127 -83 0
-127 73 0
-127 42 0
-127 87 0
-127 20 0
127 -23 78 18 -76 58 83 -73 -42 -87 -20 0
-128 -57 0
-128 -17 0
-128 47 0
-128 78 0
-128 42 0
-128 67 0
-128 -52 0
-128 32 0
-128 59 0
-128 -85 0
128 57 17 -47 -78 -42 -67 52 -32 -59 85 0
-129 72 0
-129 -35 0
-129 57 0
-129 39 0
-129 93 0
-129 10 0
-129 -7 0
-129 8 0
-129 95 0
-129 59 0
129 -72 35 -57 -39 -93 -10 7 -8 -95 -59 0
-130 -16 0
-130 68 0
-130 -9 0
-130 64 0
-130 -95 0
-130 12 0
-130 -87 0
-130 7 0
-130 -58 0
-130 17 0
130 16 -68 9 -64 95 -12 87 -7 58 -17 0
121 122 123 124 125 126 127 128 129 130 0
-131 -30 0
-131 40 0
-131 50 0
-131 28 0
-131 -85 0
-131 -5 0
-131 -57 0
-131 70 0
-131 -27 0
-131 61 0
131 30 -40 -50 -28 85 5 57 -70 27 -61 0
-132 -23 0
-132 3 0
-132 76 0
-132 -42 0
-132 -16 0
-132 33 0
-132 41 0
-132 82 0
-132 -84 0
-132 -71 0
132 23 -3 -76 42 16 -33 -41 -82 84 71 0
-133 -29 0
-133 28 0
-133 -45 0
-133 94 0
-133 20 0
-133 60 0
-133 95 0
-133 -50 0
-133 61 0
-133 74 0
133 29 -28 45 -94 -20 -60 -95 50 -61 -74 0
-134 70 0
-134 -12 0
-134 9 0
-134 -67 0
-134 7 0
-134 94 0
-134 -81 0
-134 62 0
-134 -22 0
-134 -17 0
134 -70 12 -9 67 -7 -94 81 -62 22 17 0
-135 -7 0
-135 -56 0
-135 61 0
-135 74 0
-135 93 0
-135 64 0
-135 43 0
-135 49 0
-135 -60 0
-135 63 0
135 7 56 -61 -74 -93 -64 -43 -49 60 -63 0
-136 -41 0
-136 9 0
-136 37 0
-136 -52 0
-136 84 0
-136 -77 0
-136 83 0
-136 21 0
-136 -88 0
-136 -7 0
136 41 -9 -37 52 -84 77 -83 -21 88 7 0
-137 15 0
-137 -79 0
-137 -59 0
-137 -61 0
-137 -34 0
-137 25 0
-137 35 0
-137 2 0
-137 94 0
-137 -14 0
137 -15 79 59 61 34 -25 -35 -2 -94 14 0
-138 -43 0
-138 85 0
-138 -13 0
-138 78 0
-138 46 0
-138 -42 0
-138 -35 0
-138 -64 0
-138 22 0
-138 74 0
138 43 -85 13 -78 -46 42 35 64 -22 -74 0
-139 -88 0
-139 43 0
-139 -22 0
-139 3 0
-139 39 0
-139 71 0
-139 -27 0
-139 5 0
-139 -52 0
-139 8 0
139 88 -43 22 -3 -39 -71 27 -5 52 -8 0
-140 6 0
-140 -86 0
-140 47 0
-140 43 0
-140 60 0
-140 90 0
-140 97 0
-140 23 0
-140 -80 0
-140 72 0
140 -6 86 -47 -43 -60 -90 -97 -23 80 -72 0
131 132 133 134 135 136 137 138 139 140 0
-141 1 0
-141 64 0
-141 -62 0
-141 -99 0
-141 83 0
-141 -17 0
-141 4 0
-141 -22 0
-141 -91 0
-141 57 0
141 -1 -64 62 99 -83 17 -4 22 91 -57 0
-142 -1 0
-142 -17 0
-142 55 0
-142 81 0
-142 -77 0
-142 32 0
-142 36 0
-142 -91 0
-142 -89 0
-142 -29 0
142 1 17 -55 -81 77 -32 -36 91 89 29 0
-143 53 0
-143 -74 0
-143 -72 0
-143 -73 0
-143 6 0
-143 -7 0
-143 80 0
-143 -84 0
-143 -46 0
-143 93 0
143 -53 74 72 73 -6 7 -80 84 46 -93 0
-144 29 0
-144 69 0
-144 -28 0
-144 42 0
-144 72 0
-144 71 0
-144 -17 0
-144 99 0
-144 -25 0
-144 -85 0
144 -29 -69 28 -42 -72 -71 17 -99 25 85 0
-145 -28 0
-145 95 0
-145 -78 0
-145 -94 0
-145 -48 0
-145 16 0
-145 -65 0
-145 9 0
-145 57 0
-145 -4 0
145 28 -95 78 94 48 -16 65 -9 -57 4 0
-146 -5 0
-146 -78 0
-146 -38 0
-146 61 0
-146 77 0
-146 62 0
-146 52 0
-146 -97 0
-146 2 0
-146 67 0
146 5 78 38 -61 -77 -62 -52 97 -2 -67 0
-147 37 0
-147 70 0
-147 -13 0
-147 -93 0
-147 22 0
-147 -18 0
-147 39 0
-147 -81 0
-147 33 0
-147 -80 0
147 -37 -70 13 93 -22 18 -39 81 -33 80 0
-148 -22 0
-148 97 0
-148 59 0
-148 89 0
-148 94 0
-148 93 0
-148 -50 0
-148 -79 0
-148 -5 0
-148 8 0
148 22 -97 -59 -89 -94 -93 50 79 5 -8 0
-149 -32 0
-149 73 0
-149 25 0
-149 8 0
-149 -61 0
-149 27 0
-149 78 0
-149 -33 0
-149 44 0
-149 66 0
149 32 -73 -25 -8 61 -27 -78 33 -44 -66 0
-150 -61 0
-150 38 0
-150 39 0
-150 86 0
-150 9 0
-150 -74 0
-150 62 0
-150 54 0
-150 -21 0
-150 32 0
150 61 -38 -39 -86 -9 74 -62 -54 21 -32 0
141 142 143 144 145 146 147 148 149 150 0
-151 84 0
-151 47 0
-151 -61 0
-151 45 0
-151 75 0
-151 7 0
-151 60 0
-151 -2 0
-151 34 0
-151 76 0
151 -84 -47 61 -45 -75 -7 -60 2 -34 -76 0
-152 -82 0
-152 5 0
-152 89 0
-152 54 0
-152 -49 0
-152 -85 0
-152 -65 0
-152 74 0
-152 -88 0
-152 95 0
152 82 -5 -89 -54 49 85 65 -74 88 -95 0
-153 17 0
-153 66 0
-153 37 0
-153 -45 0
-153 -59 0
-153 9 0
-153 -68 0
-153 41 0
-153 15 0
-153 -1 0
153 -17 -66 -37 45 59 -9 68 -41 -15 1 0
-154 -98 0
-154 -9 0
-154 -83 0
-154 -99 0
-154 -79 0
-154 5 0
-154 52 0
-154 50 0
-154 -40 0
-154 -93 0
154 98 9 83 99 79 -5 -52 -50 40 93 0
-155 -13 0
-155 -23 0
-155 84 0
-155 86 0
-155 83 0
-155 42 0
-155 62 0
-155 -80 0
-155 -40 0
-155 -35 0
155 13 23 -84 -86 -83 -42 -62 80 40 35 0
-156 49 0
-156 -34 0
-156 -23 0
-156 -81 0
-156 -43 0
-156 -36 0
-156 -65 0
-156 -38 0
-156 55 0
-156 -72 0
156 -49 34 23 81 43 36 65 38 -55 72 0
-157 -14 0
-157 -4 0
-157 82 0
-157 49 0
-157 40 0
-157 41 0
-157 64 0
-157 50 0
-157 -19 0
-157 36 0
157 14 4 -82 -49 -40 -41 -64 -50 19 -36 0
-158 43 0
-158 20 0
-158 11 0
-158 -13 0
-158 -31 0
-158 39 0
-158 -56 0
-158 -73 0
-158 -40 0
-158 -53 0
158 -43 -20 -11 13 31 -39 56 73 40 53 0
-159 -24 0
-159 -11 0
-159 3 0
-159 -54 0
-159 -80 0
-159 55 0
-159 9 0
-159 32 0
-159 -18 0
-159 58 0
159 24 11 -3 54 80 -55 -9 -32 18 -58 0
-160 -33 0
-160 80 0
-160 32 0
-160 31 0
-160 66 0
-160 94 0
-160 -3 0
-160 -75 0
-160 22 0
-160 -1 0
160 33 -80 -32 -31 -66 -94 3 75 -22 1 0
151 152 153 154 155 156 157 158 159 160 0
-161 -65 0
-161 -45 0
-161 -46 0
-161 -85 0
-161 87 0
-161 100 0
-161 -96 0
-161 -3 0
-161 -72 0
-161 37 0
161 65 45 46 85 -87 -100 96 3 72 -37 0
-162 -91 0
-162 -37 0
-162 25 0
-162 79 0
-162 87 0
-162 -51 0
-162 -76 0
-162 39 0
-162 53 0
-162 7 0
162 91 37 -25 -79 -87 51 76 -39 -53 -7 0
-163 18 0
-163 -60 0
-163 -65 0
-163 11 0
-163 -34 0
-163 45 0
-163 -24 0
-163 66 0
-163 -90 0
-163 -61 0
163 -18 60 65 -11 34 -45 24 -66 90 61 0
-164 -95 0
-164 35 0
-164 76 0
-164 -9 0
-164 -61 0
-164 18 0
-164 -75 0
-164 82 0
-164 -36 0
-164 -64 0
164 95 -35 -76 9 61 -18 75 -82 36 64 0
-165 77 0
-165 6 0
-165 48 0
-165 86 0
-165 -55 0
-165 -59 0
-165 -78 0
-165 50 0
-165 41 0
-165 -63 0
165 -77 -6 -48 -86 55 59 78 -50 -41 63 0
-166 -10 0
-166 -84 0
-166 13 0
-166 44 0
-166 69 0
-166 -90 0
-166 60 0
-166 -17 0
-166 -32 0
-166 -8 0
166 10 84 -13 -44 -69 90 -60 17 32 8 0
-167 12 0
-167 39 0
-167 -22 0
-167 24 0
-167 10 0
-167 41 0
-167 77 0
-167 -63 0
-167 1 0
-167 -79 0
167 -12 -39 22 -24 -10 -41 -77 63 -1 79 0
-168 8 0
-168 -18 0
-168 -33 0
-168 -90 0
-168 2 0
-168 -53 0
-168 -48 0
-168 -38 0
-168 25 0
-168 50 0
168 -8 18 33 90 -2 53 48 38 -25 -50 0
-169 52 0
-169 86 0
-169 -76 0
-169 26 0
-169 6 0
-169 15 0
-169 -37 0
-169 -66 0
-169 64 0
-169 -61 0
169 -52 -86 76 -26 -6 -15 37 66 -64 61 0
-170 -67 0
-170 -83 0
-170 96 0
-170 12 0
-170 69 0
-170 15 0
-170 2 0
-170 43 0
-170 -8 0
-170 13 0
170 67 83 -96 -12 -69 -15 -2 -43 8 -13 0
161 162 163 164 165 166 167 168 169 170 0
-171 10 0
-171 5 0
-171 -17 0
-171 -66 0
-171 -46 0
-171 -52 0
-171 -51 0
-171 38 0
-171 28 0
-171 35 0
171 -10 -5 17 66 46 52 51 -38 -28 -35 0
-172 -83 0
-172 -86 0
-172 11 0
-172 -2 0
-172 -66 0
-172 25 0
-172 -94 0
-172 -64 0
-172 -19 0
-172 -21 0
172 83 86 -11 2 66 -25 94 64 19 21 0
-173 23 0
-173 -57 0
-173 -63 0
-173 34 0
-173 -43 0
-173 5 0
-173 -24 0
-173 42 0
-173 -12 0
-173 25 0
173 -23 57 63 -34 43 -5 24 -42 12 -25 0
-174 -30 0
-174 6 0
-174 10 0
-174 -89 0
-174 80 0
-174 55 0
-174 77 0
-174 25 0
-174 1 0
-174 -90 0
174 30 -6 -10 89 -80 -55 -77 -25 -1 90 0
-175 25 0
-175 -68 0
-175 47 0
-175 84 0
-175 -51 0
-175 -83 0
-175 1 0
-175 -94 0
-175 -62 0
-175 26 0
175 -25 68 -47 -84 51 83 -1 94 62 -26 0
-176 -34 0
-176 -77 0
-176 -87 0
-176 -21 0
-176 59 0
-176 14 0
-176 -43 0
-176 -72 0
-176 28 0
-176 -47 0
176 34 77 87 21 -59 -14 43 72 -28 47 0
-177 45 0
-177 98 0
-177 95 0
-177 68 0
-177 37 0
-177 -50 0
-177 -27 0
-177 78 0
-177 53 0
-177 8 0
177 -45 -98 -95 -68 -37 50 27 -78 -53 -8 0
-178 78 0
-178 27 0
-178 -12 0
-178 92 0
-178 3 0
-178 -7 0
-178 -53 0
-178 83 0
-178 64 0
-178 -20 0
178 -78 -27 12 -92 -3 7 53 -83 -64 20 0
-179 -36 0
-179 -68 0
-179 5 0
-179 66 0
-179 96 0
-179 -24 0
-179 50 0
-179 7 0
-179 94 0
-179 -21 0
179 36 68 -5 -66 -96 24 -50 -7 -94 21 0
-180 -44 0
-180 -69 0
-180 72 0
-180 98 0
-180 16 0
-180 -42 0
-180 30 0
-180 53 0
-180 58 0
-180 -74 0
180 44 69 -72 -98 -16 42 -30 -53 -58 74 0
171 172 173 174 175 176 177 178 179 180 0
-181 22 0
-181 -1 0
-181 51 0
-181 -91 0
-181 77 0
-181 -19 0
-181 -63 0
-181 -61 0
-181 53 0
-181 -60 0
181 -22 1 -51 91 -77 19 63 61 -53 60 0
-182 -17 0
-182 34 0
-182 -87 0
-182 20 0
-182 -52 0
-182 -39 0
-182 -78 0
-182 -12 0
-182 -1 0
-182 26 0
182 17 -34 87 -20 52 39 78 12 1 -26 0
-183 22 0
-183 -85 0
-183 97 0
-183 47 0
-183 -18 0
-183 27 0
-183 -96 0
-183 -44 0
-183 13 0
-183 19 0
183 -22 85 -97 -47 18 -27 96 44 -13 -19 0
-184 83 0
-184 57 0
-184 -77 0
-184 4 0
-184 -6 0
-184 -87 0
-184 -66 0
-184 -22 0
-184 2 0
-184 -93 0
184 -83 -57 77 -4 6 87 66 22 -2 93 0
-185 79 0
-185 62 0
-185 72 0
-185 73 0
-185 -89 0
-185 71 0
-185 8 0
-185 -95 0
-185 -78 0
-185 26 0
185 -79 -62 -72 -73 89 -71 -8 95 78 -26 0
-186 -71 0
-186 11 0
-186 31 0
-186 -35 0
-186 -84 0
-186 9 0
-186 -77 0
-186 52 0
-186 90 0
-186 44 0
186 71 -11 -31 35 84 -9 77 -52 -90 -44 0
-187 -63 0
-187 100 0
-187 55 0
-187 23 0
-187 89 0
-187 -46 0
-187 -14 0
-187 73 0
-187 -70 0
-187 -45 0
187 63 -100 -55 -23 -89 46 14 -73 70 45 0
-188 86 0
-188 -61 0
-188 15 0
-188 11 0
-188 -32 0
-188 70 0
-188 58 0
-188 -22 0
-188 -84 0
-188 76 0
188 -86 61 -15 -11 32 -70 -58 22 84 -76 0
-189 23 0
-189 67 0
-189 52 0
-189 53 0
-189 -22 0
-189 91 0
-189 -60 0
-189 45 0
-189 18 0
-189 33 0
189 -23 -67 -52 -53 22 -91 60 -45 -18 -33 0
-190 80 0
-190 1 0
-190 -99 0
-190 -93 0
-190 -36 0
-190 -23 0
-190 -72 0
-190 43 0
-190 50 0
-190 -47 0
190 -80 -1 99 93 36 23 72 -43 -50 47 0
181 182 183 184 185 186 187 188 189 190 0
-191 -78 0
-191 38 0
-191 -23 0
-191 -95 0
-191 92 0
-191 -96 0
-191 -4 0
-191 -68 0
-191 -51 0
-191 -1 0
191 78 -38 23 95 -92 96 4 68 51 1 0
-192 -88 0
-192 -69 0
-192 81 0
-192 67 0
-192 -61 0
-192 -14 0
-192 -38 0
-192 -57 0
-192 30 0
-192 -53 0
192 88 69 -81 -67 61 14 38 57 -30 53 0
-193 29 0
-193 84 0
-193 -93 0
-193 -50 0
-193 46 0
-193 49 0
-193 74 0
-193 -28 0
-193 -64 0
-193 -25 0
193 -29 -84 93 50 -46 -49 -74 28 64 25 0
-194 -65 0
-194 -69 0
-194 -76 0
-194 100 0
-194 7 0
-194 -37 0
-194 -8 0
-194 53 0
-194 49 0
-194 3 0
194 65 69 76 -100 -7 37 8 -53 -49 -3 0
-195 -45 0
-195 61 0
-195 -39 0
-195 -62 0
-195 100 0
-195 -79 0
-195 -27 0
-195 -5 0
-195 -60 0
-195 20 0
195 45 -61 39 62 -100 79 27 5 60 -20 0
-196 -99 0
-196 -74 0
-196 -9 0
-196 96 0
-196 -33 0
-196 -38 0
-196 -59 0
-196 -63 0
-196 25 0
-196 -35 0
196 99 74 9 -96 33 38 59 63 -25 35 0
-197 16 0
-197 -36 0
-197 -1 0
-197 -8 0
-197 -45 0
-197 85 0
-197 40 0
-197 24 0
-197 5 0
-197 80 0
197 -16 36 1 8 45 -85 -40 -24 -5 -80 0
-198 -80 0
-198 -91 0
-198 76 0
-198 48 0
-198 23 0
-198 39 0
-198 -37 0
-198 29 0
-198 9 0
-198 88 0
198 80 91 -76 -48 -23 -39 37 -29 -9 -88 0
-199 -76 0
-199 -35 0
-199 99 0
-199 4 0
-199 44 0
-199 -87 0
-199 -57 0
-199 -95 0
-199 -77 0
-199 23 0
199 76 35 -99 -4 -44 87 57 95 77 -23 0
-200 -49 0
-200 -23 0
-200 -67 0
-200 66 0
-200 57 0
-200 16 0
-200 52 0
-200 -73 0
-200 -9 0
-200 33 0
200 49 23 67 -66 -57 -16 -52 73 9 -33 0
191 192 193 194 195 196 197 198 199 200 0
